# Solution for model qis_1000_800_330
# Objective value = 2.8883710730001724e+02
x[0] 0
x[1] 0
x[2] 0
x[3] 0
x[4] 0
x[5] 1
x[6] 1
x[7] 0
x[8] 0
x[9] 1
x[10] 0
x[11] 1
x[12] 1
x[13] 1
x[14] 1
x[15] 0
x[16] 1
x[17] 1
x[18] 1
x[19] 1
x[20] 1
x[21] 1
x[22] 1
x[23] 1
x[24] 1
x[25] 1
x[26] 0
x[27] 0
x[28] 0
x[29] 0
x[30] 0
x[31] 0
x[32] 0
x[33] 1
x[34] 0
x[35] 1
x[36] 0
x[37] 0
x[38] 0
x[39] 1
x[40] 0
x[41] 0
x[42] 0
x[43] 0
x[44] 1
x[45] 1
x[46] 1
x[47] 0
x[48] 1
x[49] 1
x[50] 1
x[51] 1
x[52] 0
x[53] 1
x[54] 1
x[55] 1
x[56] 1
x[57] 1
x[58] 0
x[59] 0
x[60] 1
x[61] 0
x[62] 1
x[63] 1
x[64] 1
x[65] 0
x[66] 0
x[67] 0
x[68] 1
x[69] 1
x[70] 1
x[71] 1
x[72] 0
x[73] 0
x[74] 0
x[75] 0
x[76] 0
x[77] 0
x[78] 1
x[79] 0
x[80] 0
x[81] 1
x[82] 1
x[83] 1
x[84] 1
x[85] 1
x[86] 0
x[87] 0
x[88] 1
x[89] 0
x[90] 1
x[91] 1
x[92] 0
x[93] 1
x[94] 0
x[95] 1
x[96] 0
x[97] 1
x[98] 1
x[99] 0
x[100] 1
x[101] 0
x[102] 1
x[103] 1
x[104] 0
x[105] 1
x[106] 0
x[107] 0
x[108] 0
x[109] 1
x[110] 0
x[111] 0
x[112] 0
x[113] 0
x[114] 1
x[115] 1
x[116] 0
x[117] 1
x[118] 0
x[119] 0
x[120] 1
x[121] 1
x[122] 0
x[123] 1
x[124] 0
x[125] 1
x[126] 1
x[127] 1
x[128] 1
x[129] 1
x[130] 1
x[131] 1
x[132] 1
x[133] 1
x[134] 1
x[135] 0
x[136] 1
x[137] 1
x[138] 1
x[139] 1
x[140] 1
x[141] 0
x[142] 0
x[143] 1
x[144] 1
x[145] 0
x[146] 0
x[147] 0
x[148] 0
x[149] 1
x[150] 0
x[151] 0
x[152] 1
x[153] 0
x[154] 1
x[155] 0
x[156] 0
x[157] 1
x[158] 0
x[159] 0
x[160] 0
x[161] 0
x[162] 0
x[163] 1
x[164] 1
x[165] 0
x[166] 0
x[167] 0
x[168] 1
x[169] 0
x[170] 0
x[171] 0
x[172] 0
x[173] 1
x[174] 0
x[175] 0
x[176] 0
x[177] 0
x[178] 1
x[179] 0
x[180] 1
x[181] 0
x[182] 1
x[183] 1
x[184] 0
x[185] 0
x[186] 1
x[187] 0
x[188] 0
x[189] 1
x[190] 1
x[191] 0
x[192] 1
x[193] 1
x[194] 1
x[195] 0
x[196] 0
x[197] 1
x[198] 0
x[199] 1
x[200] 0
x[201] 1
x[202] 0
x[203] 1
x[204] 0
x[205] 0
x[206] 1
x[207] 1
x[208] 0
x[209] 1
x[210] 1
x[211] 0
x[212] 0
x[213] 1
x[214] 1
x[215] 0
x[216] 0
x[217] 0
x[218] 0
x[219] 1
x[220] 0
x[221] 1
x[222] 0
x[223] 0
x[224] 0
x[225] 0
x[226] 1
x[227] 0
x[228] 0
x[229] 1
x[230] 0
x[231] 0
x[232] 1
x[233] 1
x[234] 1
x[235] 0
x[236] 0
x[237] 1
x[238] 0
x[239] 0
x[240] 0
x[241] 0
x[242] 0
x[243] 0
x[244] 0
x[245] 1
x[246] 0
x[247] 0
x[248] 1
x[249] 1
x[250] 0
x[251] 1
x[252] 1
x[253] 1
x[254] 1
x[255] 1
x[256] 1
x[257] 0
x[258] 1
x[259] 1
x[260] 0
x[261] 0
x[262] 1
x[263] 0
x[264] 0
x[265] 1
x[266] 0
x[267] 0
x[268] 0
x[269] 0
x[270] 1
x[271] 0
x[272] 1
x[273] 0
x[274] 0
x[275] 1
x[276] 1
x[277] 1
x[278] 1
x[279] 0
x[280] 1
x[281] 1
x[282] 0
x[283] 1
x[284] 1
x[285] 1
x[286] 0
x[287] 0
x[288] 0
x[289] 0
x[290] 1
x[291] 0
x[292] 1
x[293] 1
x[294] 1
x[295] 0
x[296] 0
x[297] 0
x[298] 1
x[299] 1
x[300] 1
x[301] 0
x[302] 1
x[303] 1
x[304] 1
x[305] 0
x[306] 0
x[307] 0
x[308] 0
x[309] 1
x[310] 1
x[311] 1
x[312] 1
x[313] 0
x[314] 1
x[315] 1
x[316] 1
x[317] 0
x[318] 1
x[319] 1
x[320] 0
x[321] 0
x[322] 1
x[323] 0
x[324] 0
x[325] 0
x[326] 0
x[327] 1
x[328] 1
x[329] 1
x[330] 1
x[331] 1
x[332] 0
x[333] 1
x[334] 1
x[335] 1
x[336] 0
x[337] 0
x[338] 1
x[339] 0
x[340] 0
x[341] 0
x[342] 1
x[343] 1
x[344] 1
x[345] 0
x[346] 0
x[347] 1
x[348] 0
x[349] 0
x[350] 0
x[351] 1
x[352] 0
x[353] 0
x[354] 0
x[355] 1
x[356] 0
x[357] 0
x[358] 0
x[359] 0
x[360] 1
x[361] 1
x[362] 0
x[363] 0
x[364] 0
x[365] 0
x[366] 0
x[367] 1
x[368] 1
x[369] 0
x[370] 1
x[371] 1
x[372] 1
x[373] 0
x[374] 1
x[375] 1
x[376] 1
x[377] 0
x[378] 1
x[379] 0
x[380] 0
x[381] 1
x[382] 1
x[383] 0
x[384] 1
x[385] 0
x[386] 1
x[387] 1
x[388] 1
x[389] 1
x[390] 0
x[391] 1
x[392] 0
x[393] 1
x[394] 0
x[395] 0
x[396] 1
x[397] 1
x[398] 1
x[399] 0
x[400] 1
x[401] 0
x[402] 1
x[403] 1
x[404] 1
x[405] 0
x[406] 1
x[407] 1
x[408] 0
x[409] 0
x[410] 0
x[411] 0
x[412] 1
x[413] 1
x[414] 0
x[415] 0
x[416] 1
x[417] 1
x[418] 1
x[419] 0
x[420] 0
x[421] 0
x[422] 0
x[423] 1
x[424] 1
x[425] 1
x[426] 0
x[427] 1
x[428] 1
x[429] 1
x[430] 1
x[431] 0
x[432] 1
x[433] 0
x[434] 0
x[435] 0
x[436] 0
x[437] 1
x[438] 0
x[439] 1
x[440] 0
x[441] 1
x[442] 1
x[443] 1
x[444] 0
x[445] 0
x[446] 1
x[447] 1
x[448] 0
x[449] 0
x[450] 0
x[451] 1
x[452] 1
x[453] 1
x[454] 1
x[455] 1
x[456] 1
x[457] 1
x[458] 0
x[459] 1
x[460] 1
x[461] 0
x[462] 0
x[463] 1
x[464] 0
x[465] 0
x[466] 0
x[467] 1
x[468] 1
x[469] 1
x[470] 0
x[471] 0
x[472] 1
x[473] 1
x[474] 1
x[475] 0
x[476] 1
x[477] 1
x[478] 0
x[479] 1
x[480] 0
x[481] 1
x[482] 0
x[483] 0
x[484] 1
x[485] 0
x[486] 1
x[487] 0
x[488] 1
x[489] 1
x[490] 1
x[491] 1
x[492] 1
x[493] 0
x[494] 1
x[495] 1
x[496] 1
x[497] 0
x[498] 0
x[499] 1
x[500] 1
x[501] 0
x[502] 1
x[503] 1
x[504] 0
x[505] 1
x[506] 1
x[507] 0
x[508] 0
x[509] 0
x[510] 1
x[511] 1
x[512] 0
x[513] 1
x[514] 1
x[515] 0
x[516] 0
x[517] 0
x[518] 1
x[519] 1
x[520] 0
x[521] 0
x[522] 0
x[523] 0
x[524] 0
x[525] 0
x[526] 0
x[527] 1
x[528] 1
x[529] 0
x[530] 0
x[531] 0
x[532] 0
x[533] 0
x[534] 0
x[535] 0
x[536] 0
x[537] 1
x[538] 0
x[539] 1
x[540] 1
x[541] 0
x[542] 1
x[543] 0
x[544] 1
x[545] 0
x[546] 1
x[547] 1
x[548] 0
x[549] 1
x[550] 1
x[551] 1
x[552] 0
x[553] 0
x[554] 0
x[555] 0
x[556] 1
x[557] 0
x[558] 0
x[559] 0
x[560] 1
x[561] 0
x[562] 0
x[563] 0
x[564] 1
x[565] 0
x[566] 1
x[567] 0
x[568] 1
x[569] 1
x[570] 1
x[571] 1
x[572] 1
x[573] 1
x[574] 1
x[575] 0
x[576] 1
x[577] 0
x[578] 0
x[579] 0
x[580] 1
x[581] 0
x[582] 0
x[583] 0
x[584] 0
x[585] 0
x[586] 1
x[587] 1
x[588] 1
x[589] 1
x[590] 1
x[591] 0
x[592] 1
x[593] 0
x[594] 0
x[595] 0
x[596] 1
x[597] 1
x[598] 1
x[599] 1
x[600] 0
x[601] 0
x[602] 1
x[603] 0
x[604] 0
x[605] 0
x[606] 0
x[607] 1
x[608] 1
x[609] 0
x[610] 0
x[611] 0
x[612] 1
x[613] 1
x[614] 1
x[615] 0
x[616] 0
x[617] 0
x[618] 1
x[619] 1
x[620] 0
x[621] 1
x[622] 1
x[623] 1
x[624] 1
x[625] 1
x[626] 1
x[627] 1
x[628] 0
x[629] 1
x[630] 1
x[631] 0
x[632] 0
x[633] 0
x[634] 1
x[635] 0
x[636] 0
x[637] 1
x[638] 0
x[639] 0
x[640] 1
x[641] 0
x[642] 1
x[643] 0
x[644] 0
x[645] 1
x[646] 1
x[647] 1
x[648] 0
x[649] 1
x[650] 0
x[651] 0
x[652] 0
x[653] 1
x[654] 1
x[655] 0
x[656] 1
x[657] 1
x[658] 1
x[659] 1
x[660] 1
x[661] 1
x[662] 1
x[663] 1
x[664] 0
x[665] 0
x[666] 1
x[667] 0
x[668] 0
x[669] 1
x[670] 0
x[671] 1
x[672] 1
x[673] 0
x[674] 0
x[675] 0
x[676] 1
x[677] 1
x[678] 0
x[679] 1
x[680] 1
x[681] 0
x[682] 0
x[683] 1
x[684] 1
x[685] 0
x[686] 1
x[687] 1
x[688] 0
x[689] 0
x[690] 1
x[691] 0
x[692] 0
x[693] 0
x[694] 0
x[695] 1
x[696] 0
x[697] 1
x[698] 0
x[699] 1
x[700] 1
x[701] 0
x[702] 0
x[703] 0
x[704] 0
x[705] 0
x[706] 0
x[707] 0
x[708] 0
x[709] 0
x[710] 0
x[711] 1
x[712] 0
x[713] 0
x[714] 0
x[715] 0
x[716] 1
x[717] 0
x[718] 0
x[719] 1
x[720] 0
x[721] 0
x[722] 1
x[723] 0
x[724] 1
x[725] 1
x[726] 0
x[727] 1
x[728] 0
x[729] 0
x[730] 1
x[731] 0
x[732] 1
x[733] 0
x[734] 0
x[735] 1
x[736] 1
x[737] 0
x[738] 1
x[739] 0
x[740] 0
x[741] 0
x[742] 0
x[743] 0
x[744] 0
x[745] 1
x[746] 0
x[747] 0
x[748] 1
x[749] 0
x[750] 0
x[751] 0
x[752] 0
x[753] 0
x[754] 0
x[755] 0
x[756] 1
x[757] 1
x[758] 1
x[759] 0
x[760] 1
x[761] 0
x[762] 1
x[763] 1
x[764] 0
x[765] 1
x[766] 0
x[767] 0
x[768] 1
x[769] 1
x[770] 1
x[771] 1
x[772] 0
x[773] 0
x[774] 1
x[775] 0
x[776] 1
x[777] 1
x[778] 0
x[779] 0
x[780] 0
x[781] 1
x[782] 1
x[783] 0
x[784] 0
x[785] 1
x[786] 1
x[787] 0
x[788] 1
x[789] 6.66127497157407e-07
x[790] 1
x[791] 1
x[792] 0
x[793] 1
x[794] 0
x[795] 1
x[796] 1
x[797] 0
x[798] 1
x[799] 0
x[800] 0
x[801] 0
x[802] 0
x[803] 0
x[804] 0
x[805] 0
x[806] 0
x[807] 1
x[808] 0
x[809] 1
x[810] 0
x[811] 0
x[812] 0
x[813] 1
x[814] 1
x[815] 1
x[816] 1
x[817] 0
x[818] 1
x[819] 1
x[820] 1
x[821] 1
x[822] 1
x[823] 0
x[824] 1
x[825] 1
x[826] 0
x[827] 0
x[828] 1
x[829] 0
x[830] 1
x[831] 1
x[832] 1
x[833] 0
x[834] 0
x[835] 1
x[836] 0
x[837] 1
x[838] 1
x[839] 0
x[840] 1
x[841] 1
x[842] 1
x[843] 1
x[844] 1
x[845] 0
x[846] 1
x[847] 1
x[848] 0
x[849] 1
x[850] 1
x[851] 0
x[852] 0
x[853] 0
x[854] 0
x[855] 0
x[856] 0
x[857] 1
x[858] 0
x[859] 0
x[860] 0
x[861] 0
x[862] 1
x[863] 0
x[864] 0
x[865] 1
x[866] 0
x[867] 0
x[868] 1
x[869] 0
x[870] 1
x[871] 0
x[872] 0
x[873] 1
x[874] 0
x[875] 0
x[876] 0
x[877] 0
x[878] 1
x[879] 1
x[880] 1
x[881] 0
x[882] 1
x[883] 0
x[884] 0
x[885] 0
x[886] 0
x[887] 0
x[888] 1
x[889] 0
x[890] 0
x[891] 1
x[892] 1
x[893] 1
x[894] 0
x[895] 1
x[896] 1
x[897] 0
x[898] 1
x[899] 0
x[900] 1
x[901] 1
x[902] 1
x[903] 0
x[904] 0
x[905] 0
x[906] 0
x[907] 1
x[908] 0
x[909] 0
x[910] 0
x[911] 0
x[912] 0
x[913] 1
x[914] 1
x[915] 1
x[916] 1
x[917] 0
x[918] 1
x[919] 0
x[920] 0
x[921] 0
x[922] 1
x[923] 1
x[924] 1
x[925] 0
x[926] 0
x[927] 0
x[928] 1
x[929] 1
x[930] 0
x[931] 0
x[932] 0
x[933] 0
x[934] 1
x[935] 1
x[936] 0
x[937] 1
x[938] 1
x[939] 0
x[940] 0
x[941] 0
x[942] 1
x[943] 0
x[944] 1
x[945] 0
x[946] 1
x[947] 0
x[948] 1
x[949] 0
x[950] 1
x[951] 1
x[952] 0
x[953] 1
x[954] 0
x[955] 0
x[956] 1
x[957] 0
x[958] 1
x[959] 0
x[960] 0
x[961] 0
x[962] 0
x[963] 0
x[964] 0
x[965] 0
x[966] 0
x[967] 0
x[968] 1
x[969] 0
x[970] 1
x[971] 1
x[972] 1
x[973] 0
x[974] 1
x[975] 1
x[976] 0
x[977] 1
x[978] 0
x[979] 0
x[980] 0
x[981] 0
x[982] 1
x[983] 1
x[984] 0
x[985] 0
x[986] 1
x[987] 0
x[988] 0
x[989] 0
x[990] 0
x[991] 1
x[992] 1
x[993] 1
x[994] 1
x[995] 1
x[996] 0
x[997] 0
x[998] 0
x[999] 1
